
%FILE DATA:	Soccer Computational Problem for MiniZinc Models	%
%AUTHOR:	Jack Wall	%
%CONTACT:  	116397063@umail.ucc.ie			%
%LAST UPDATE:	03/03/2020, 12:07:43						%
%DESCRIPTION: 	77 games played with 33 games left				%


n=11; %number of teams

%Games to play
games=[|10,8|11,7|9,10|6,8|4,11|11,5|10,6|11,6|5,4|3,9|5,1|1,8|9,11|9,4|3,5|9,1|3,11|5,6|5,10|7,2|9,8|1,11|11,2|10,9|1,7|8,5|3,10|4,7|6,5|2,1|6,1|8,4|8,7|];

%Initial points
iPoints=[24,27,17,22,16,10,19,15,16,19,16];

%POSITION CONSTRAINTS
% [|teamID, operator, position|...]
% operators index:
%  1 for =  operator
%  2 for >  operator
%  3 for >= operator
%  4 for <  operator
%  5 for <= operator
positionConstraints=[|1,5,1|2,1,2|8,5,3|7,4,5|11,2,4|];